(declare-fun v0 () (_ BitVec 12))
(declare-fun v2 () (_ BitVec 16))
(assert
(let (($e2 (_ bv1504 12)))
(let (($e8 (_ bv15 4)))
(let (($e72                   $e8     ))
(let (($e73 (concat $e72 $e2)))
(let (($e74             v2 ))
(let (($e75               $e73             ))
(let (($e76 (bvand        $e75         $e74 )))
(let (($e83                  v2 ))
(let (($e84             $e83 ))
(let (($e88              $e84 ))
(let (($e419                    $e8     ))
(let (($e420 (concat $e419 v0)))
(let (($e421 (bvand $e420 $e76)))
(let (($e458 (   extract      $e88)))
(let (($e459             $e458          ))
(let (($e460            $e459 ))
             (ite        $e460  $e421 $e76)
                                                                                                                                                                                                                                                                                                                                                                                                                                                                                                                                                                                                                                                                                                                                                                                                                                                                                                                                                     )))                                    )))                                                                                                                                                                                                                                                                                                                                          )   ))      )))))                                                    )     ) )
